# Solution for model weathering_srl_ilp
# Objective value = 6.2636842184126200e+00
Z_338_0_0 0
Z_338_0_1 0
Z_338_0_2 0
Z_338_0_3 1
Z_350_0_0 0
Z_350_0_1 0
Z_350_0_2 0
Z_350_0_3 1
Z_24_0_0 0
Z_24_0_1 0
Z_24_0_2 0
Z_24_0_3 1
Z_194_0_0 1
Z_194_0_1 0
Z_194_0_2 0
Z_194_0_3 0
Z_194_1_0 0
Z_194_1_1 0
Z_194_1_2 1
Z_194_1_3 0
Z_1_0_0 0
Z_1_0_1 0
Z_1_0_2 1
Z_1_0_3 0
Z_427_0_0 0
Z_427_0_1 0
Z_427_0_2 1
Z_427_0_3 0
Z_429_0_0 0
Z_429_0_1 1
Z_429_0_2 0
Z_429_0_3 0
Z_197_0_0 0
Z_197_0_1 0
Z_197_0_2 0
Z_197_0_3 1
Z_562_0_0 0
Z_562_0_1 0
Z_562_0_2 1
Z_562_0_3 0
Z_562_1_0 1
Z_562_1_1 0
Z_562_1_2 0
Z_562_1_3 0
Z_562_2_0 0
Z_562_2_1 0
Z_562_2_2 0
Z_562_2_3 1
Z_562_3_0 0
Z_562_3_1 1
Z_562_3_2 0
Z_562_3_3 0
